p edge 64 512
e 1 19
e 1 3
e 1 10
e 1 62
e 1 24
e 1 35
e 1 21
e 1 9
e 1 7
e 1 23
e 1 60
e 1 49
e 1 28
e 1 50
e 2 25
e 2 43
e 2 24
e 2 29
e 2 21
e 2 64
e 2 13
e 2 34
e 2 5
e 2 22
e 2 23
e 2 51
e 2 11
e 2 56
e 3 53
e 3 17
e 3 61
e 3 31
e 3 35
e 3 10
e 3 28
e 3 63
e 3 9
e 3 62
e 3 24
e 3 34
e 3 7
e 4 12
e 4 51
e 4 5
e 4 9
e 4 10
e 4 48
e 4 20
e 4 47
e 4 31
e 4 53
e 4 19
e 4 35
e 4 39
e 4 64
e 4 60
e 4 50
e 4 45
e 5 63
e 5 19
e 5 10
e 5 24
e 5 60
e 5 17
e 5 52
e 5 32
e 5 36
e 5 35
e 5 14
e 5 29
e 5 28
e 5 58
e 5 39
e 6 58
e 6 37
e 6 46
e 6 51
e 6 29
e 6 41
e 6 55
e 6 45
e 6 18
e 6 15
e 6 43
e 6 21
e 6 49
e 6 42
e 6 7
e 7 63
e 7 11
e 7 60
e 7 52
e 7 64
e 7 32
e 7 36
e 7 45
e 7 42
e 7 31
e 7 23
e 7 29
e 8 62
e 8 36
e 8 40
e 8 56
e 8 58
e 8 61
e 8 32
e 8 44
e 8 46
e 9 58
e 9 63
e 9 15
e 9 16
e 9 31
e 9 37
e 9 47
e 9 41
e 9 64
e 9 42
e 9 62
e 9 17
e 9 29
e 9 49
e 9 54
e 9 45
e 9 55
e 9 14
e 10 25
e 10 42
e 10 28
e 10 29
e 10 59
e 10 13
e 10 15
e 10 51
e 10 37
e 10 45
e 10 55
e 11 12
e 11 55
e 11 51
e 11 45
e 11 17
e 11 64
e 11 34
e 11 23
e 11 61
e 11 59
e 11 35
e 11 31
e 11 20
e 12 28
e 12 33
e 12 46
e 12 16
e 12 22
e 12 50
e 12 25
e 12 54
e 12 13
e 13 27
e 13 59
e 13 54
e 13 64
e 13 18
e 13 52
e 13 20
e 13 35
e 13 29
e 13 46
e 13 34
e 13 49
e 13 40
e 13 14
e 13 53
e 13 51
e 13 47
e 14 22
e 14 55
e 14 61
e 14 33
e 14 63
e 14 59
e 14 47
e 14 27
e 15 30
e 15 49
e 15 63
e 15 25
e 15 32
e 15 19
e 15 60
e 15 57
e 15 42
e 15 48
e 15 46
e 15 26
e 15 22
e 15 47
e 15 56
e 16 25
e 16 18
e 16 38
e 16 20
e 16 41
e 16 57
e 16 46
e 16 54
e 16 50
e 17 60
e 17 52
e 17 33
e 17 45
e 17 39
e 17 49
e 17 30
e 17 57
e 17 58
e 17 25
e 17 26
e 17 43
e 18 25
e 18 60
e 18 30
e 18 57
e 18 23
e 18 56
e 18 62
e 18 49
e 18 29
e 18 28
e 18 46
e 18 26
e 18 32
e 18 61
e 18 36
e 19 36
e 19 33
e 19 24
e 19 38
e 19 34
e 19 47
e 19 44
e 19 52
e 20 30
e 20 44
e 20 60
e 20 27
e 20 61
e 20 59
e 20 42
e 20 49
e 20 34
e 20 23
e 20 40
e 20 54
e 20 45
e 20 55
e 20 47
e 21 44
e 21 56
e 21 61
e 21 46
e 21 33
e 21 31
e 21 63
e 21 45
e 21 54
e 21 53
e 22 64
e 22 59
e 22 45
e 22 24
e 22 23
e 23 45
e 23 48
e 23 42
e 23 38
e 23 32
e 23 55
e 23 57
e 23 31
e 23 24
e 23 29
e 23 44
e 23 49
e 24 59
e 24 61
e 24 42
e 24 30
e 24 41
e 24 45
e 24 26
e 24 60
e 24 25
e 24 53
e 24 56
e 25 58
e 25 50
e 25 41
e 25 55
e 25 26
e 25 40
e 25 61
e 25 29
e 25 52
e 25 39
e 25 36
e 25 31
e 25 53
e 25 54
e 26 52
e 26 45
e 26 32
e 26 55
e 26 59
e 26 49
e 26 64
e 26 42
e 27 32
e 27 39
e 27 47
e 27 63
e 27 31
e 27 46
e 27 48
e 27 36
e 27 55
e 27 42
e 27 45
e 27 59
e 27 61
e 27 54
e 28 54
e 28 39
e 28 30
e 28 32
e 28 43
e 28 60
e 28 64
e 28 37
e 29 62
e 29 54
e 29 58
e 29 32
e 29 53
e 29 51
e 29 61
e 29 45
e 29 63
e 30 47
e 30 54
e 30 41
e 30 48
e 30 31
e 30 51
e 30 38
e 30 60
e 31 38
e 31 53
e 31 62
e 31 60
e 31 54
e 31 37
e 31 61
e 31 49
e 31 57
e 32 60
e 32 36
e 32 62
e 32 49
e 32 58
e 32 46
e 32 59
e 32 54
e 32 53
e 32 52
e 33 60
e 33 43
e 33 38
e 33 49
e 33 35
e 33 63
e 33 64
e 33 39
e 33 40
e 33 55
e 33 58
e 33 59
e 34 43
e 34 46
e 34 47
e 34 62
e 34 56
e 34 45
e 34 42
e 34 57
e 34 49
e 34 50
e 35 40
e 35 42
e 35 55
e 35 58
e 35 51
e 35 39
e 35 56
e 36 51
e 36 47
e 36 50
e 36 42
e 36 56
e 36 38
e 36 55
e 37 59
e 37 57
e 37 56
e 37 50
e 37 48
e 38 60
e 38 39
e 38 52
e 39 54
e 39 51
e 39 48
e 39 49
e 39 59
e 40 44
e 40 49
e 40 60
e 40 56
e 40 63
e 40 51
e 40 64
e 40 48
e 41 47
e 41 57
e 41 63
e 41 44
e 41 64
e 42 53
e 42 57
e 42 51
e 42 50
e 42 49
e 42 45
e 42 63
e 43 64
e 43 51
e 43 63
e 43 49
e 43 45
e 43 46
e 44 45
e 44 56
e 44 48
e 44 62
e 44 52
e 44 61
e 44 64
e 45 60
e 45 49
e 45 58
e 45 51
e 45 56
e 45 63
e 46 62
e 46 57
e 46 50
e 46 54
e 46 64
e 46 59
e 47 64
e 47 62
e 47 50
e 48 49
e 48 54
e 48 61
e 49 64
e 49 60
e 49 56
e 49 62
e 50 60
e 50 53
e 50 64
e 51 54
e 51 60
e 51 53
e 51 62
e 51 56
e 51 57
e 52 62
e 52 57
e 53 62
e 53 57
e 53 55
e 53 63
e 53 60
e 54 62
e 54 57
e 54 55
e 54 64
e 55 59
e 55 58
e 55 60
e 56 63
e 56 57
e 56 64
e 57 60
e 57 59
e 58 61
e 60 61
e 63 64
